3 3 2
30 1 68 0 10 1 68 2 63 0 94 1 9 0 59 1 94 0 77 2 52 1 58 0 38 2 16 1 85 0 60 2 24 0 5 2 82 0 42 2 95 0 29 1 70 0 98 2 39 1 43 0 67 1 4 2 33 0 41 1 58 
30 0 40 2 65 0 59 2 11 1 7 0 66 2 57 0 19 1 89 2 15 1 77 2 71 0 63 1 67 2 9 1 95 0 59 1 47 0 84 2 65 1 49 0 42 1 24 2 18 0 96 1 73 2 96 0 85 2 25 0 29 
30 1 33 2 11 1 62 2 71 1 95 0 8 2 70 0 4 1 71 2 37 0 46 1 69 0 70 1 32 2 30 1 86 0 97 2 32 0 50 1 33 2 96 0 13 1 82 2 28 0 42 1 9 0 84 1 73 0 40 2 81 

-------------
